p cnf 962 2469
51 -2 -695 0
-51 2 0
-51 695 0
52 -51 -3 0
-52 51 0
-52 3 0
53 -696 -4 0
-53 696 0
-53 4 0
54 -53 -697 0
-54 53 0
-54 697 0
55 -698 -699 0
-55 698 0
-55 699 0
56 -8 -700 0
-56 8 0
-56 700 0
57 -56 -9 0
-57 56 0
-57 9 0
58 -701 -55 0
-58 701 0
-58 55 0
59 -702 -10 0
-59 702 0
-59 10 0
60 -59 -12 0
-60 59 0
-60 12 0
61 -703 -58 0
-61 703 0
-61 58 0
62 -704 -705 0
-62 704 0
-62 705 0
63 -62 -706 0
-63 62 0
-63 706 0
64 -707 -61 0
-64 707 0
-64 61 0
65 -708 -709 0
-65 708 0
-65 709 0
66 -65 -710 0
-66 65 0
-66 710 0
67 -711 -64 0
-67 711 0
-67 64 0
68 -712 -713 0
-68 712 0
-68 713 0
69 -68 -21 0
-69 68 0
-69 21 0
70 -714 -67 0
-70 714 0
-70 67 0
71 -715 -712 0
-71 715 0
-71 712 0
72 -71 -696 0
-72 71 0
-72 696 0
73 -716 -70 0
-73 716 0
-73 70 0
74 -23 -17 0
-74 23 0
-74 17 0
75 -74 -697 0
-75 74 0
-75 697 0
76 -717 -73 0
-76 717 0
-76 73 0
77 -718 -719 0
-77 718 0
-77 719 0
78 -77 -720 0
-78 77 0
-78 720 0
79 -721 -76 0
-79 721 0
-79 76 0
80 -722 -1 0
-80 722 0
-80 1 0
81 -80 -723 0
-81 80 0
-81 723 0
82 -724 -79 0
-82 724 0
-82 79 0
83 -29 -28 0
-83 29 0
-83 28 0
84 -83 -30 0
-84 83 0
-84 30 0
85 -725 -82 0
-85 725 0
-85 82 0
86 -31 -13 0
-86 31 0
-86 13 0
87 -86 -22 0
-87 86 0
-87 22 0
88 -726 -85 0
-88 726 0
-88 85 0
89 -32 -13 0
-89 32 0
-89 13 0
90 -89 -727 0
-90 89 0
-90 727 0
91 -728 -88 0
-91 728 0
-91 88 0
92 -34 -702 0
-92 34 0
-92 702 0
93 -92 -35 0
-93 92 0
-93 35 0
94 -729 -91 0
-94 729 0
-94 91 0
95 -17 -705 0
-95 17 0
-95 705 0
96 -95 -36 0
-96 95 0
-96 36 0
97 -730 -94 0
-97 730 0
-97 94 0
98 -731 -712 0
-98 731 0
-98 712 0
99 -98 -732 0
-99 98 0
-99 732 0
100 -733 -97 0
-100 733 0
-100 97 0
101 -704 -9 0
-101 704 0
-101 9 0
102 -101 -38 0
-102 101 0
-102 38 0
103 -734 -100 0
-103 734 0
-103 100 0
104 -24 -735 0
-104 24 0
-104 735 0
105 -104 -25 0
-105 104 0
-105 25 0
106 -736 -103 0
-106 736 0
-106 103 0
107 -737 -32 0
-107 737 0
-107 32 0
108 -107 -36 0
-108 107 0
-108 36 0
109 -738 -106 0
-109 738 0
-109 106 0
110 -14 -735 0
-110 14 0
-110 735 0
111 -110 -739 0
-111 110 0
-111 739 0
112 -740 -109 0
-112 740 0
-112 109 0
113 -41 -40 0
-113 41 0
-113 40 0
114 -113 -5 0
-114 113 0
-114 5 0
115 -741 -112 0
-115 741 0
-115 112 0
116 -42 -710 0
-116 42 0
-116 710 0
117 -116 -25 0
-117 116 0
-117 25 0
118 -742 -115 0
-118 742 0
-118 115 0
119 -743 -719 0
-119 743 0
-119 719 0
120 -119 -696 0
-120 119 0
-120 696 0
121 -744 -118 0
-121 744 0
-121 118 0
122 -702 -735 0
-122 702 0
-122 735 0
123 -122 -17 0
-123 122 0
-123 17 0
124 -745 -121 0
-124 745 0
-124 121 0
125 -746 -747 0
-125 746 0
-125 747 0
126 -125 -748 0
-126 125 0
-126 748 0
127 -749 -124 0
-127 749 0
-127 124 0
128 -750 -4 0
-128 750 0
-128 4 0
129 -128 -43 0
-129 128 0
-129 43 0
130 -751 -127 0
-130 751 0
-130 127 0
131 -13 -4 0
-131 13 0
-131 4 0
132 -131 -30 0
-132 131 0
-132 30 0
133 -752 -130 0
-133 752 0
-133 130 0
134 -44 -40 0
-134 44 0
-134 40 0
135 -134 -723 0
-135 134 0
-135 723 0
136 -753 -133 0
-136 753 0
-136 133 0
137 -754 -7 0
-137 754 0
-137 7 0
138 -137 -33 0
-138 137 0
-138 33 0
139 -755 -136 0
-139 755 0
-139 136 0
140 -11 -695 0
-140 11 0
-140 695 0
141 -140 -756 0
-141 140 0
-141 756 0
142 -757 -139 0
-142 757 0
-142 139 0
143 -44 -746 0
-143 44 0
-143 746 0
144 -143 -45 0
-144 143 0
-144 45 0
145 -758 -142 0
-145 758 0
-145 142 0
146 -759 -712 0
-146 759 0
-146 712 0
147 -146 -34 0
-147 146 0
-147 34 0
148 -760 -145 0
-148 760 0
-148 145 0
149 -19 -719 0
-149 19 0
-149 719 0
150 -149 -731 0
-150 149 0
-150 731 0
151 -761 -148 0
-151 761 0
-151 148 0
152 -32 -709 0
-152 32 0
-152 709 0
153 -152 -696 0
-153 152 0
-153 696 0
154 -762 -151 0
-154 762 0
-154 151 0
155 -47 -10 0
-155 47 0
-155 10 0
156 -155 -12 0
-156 155 0
-156 12 0
157 -763 -154 0
-157 763 0
-157 154 0
158 -13 -764 0
-158 13 0
-158 764 0
159 -158 -25 0
-159 158 0
-159 25 0
160 -765 -157 0
-160 765 0
-160 157 0
161 -19 -12 0
-161 19 0
-161 12 0
162 -161 -706 0
-162 161 0
-162 706 0
163 -766 -160 0
-163 766 0
-163 160 0
164 -48 -5 0
-164 48 0
-164 5 0
165 -164 -739 0
-165 164 0
-165 739 0
166 -767 -163 0
-166 767 0
-166 163 0
167 -737 -715 0
-167 737 0
-167 715 0
168 -167 -3 0
-168 167 0
-168 3 0
169 -768 -166 0
-169 768 0
-169 166 0
170 -769 -8 0
-170 769 0
-170 8 0
171 -170 -770 0
-171 170 0
-171 770 0
172 -771 -169 0
-172 771 0
-172 169 0
173 -772 -23 0
-173 772 0
-173 23 0
174 -173 -37 0
-174 173 0
-174 37 0
175 -773 -172 0
-175 773 0
-175 172 0
176 -774 -727 0
-176 774 0
-176 727 0
177 -176 -27 0
-177 176 0
-177 27 0
178 -775 -175 0
-178 775 0
-178 175 0
179 -776 -702 0
-179 776 0
-179 702 0
180 -179 -9 0
-180 179 0
-180 9 0
181 -777 -178 0
-181 777 0
-181 178 0
182 -34 -23 0
-182 34 0
-182 23 0
183 -182 -21 0
-183 182 0
-183 21 0
184 -778 -181 0
-184 778 0
-184 181 0
185 -756 -779 0
-185 756 0
-185 779 0
186 -185 -35 0
-186 185 0
-186 35 0
187 -780 -184 0
-187 780 0
-187 184 0
188 -781 -754 0
-188 781 0
-188 754 0
189 -188 -747 0
-189 188 0
-189 747 0
190 -782 -187 0
-190 782 0
-190 187 0
191 -23 -6 0
-191 23 0
-191 6 0
192 -191 -748 0
-192 191 0
-192 748 0
193 -783 -190 0
-193 783 0
-193 190 0
194 -784 -11 0
-194 784 0
-194 11 0
195 -194 -697 0
-195 194 0
-195 697 0
196 -785 -193 0
-196 785 0
-196 193 0
197 -770 -31 0
-197 770 0
-197 31 0
198 -197 -712 0
-198 197 0
-198 712 0
199 -786 -196 0
-199 786 0
-199 196 0
200 -712 -4 0
-200 712 0
-200 4 0
201 -200 -15 0
-201 200 0
-201 15 0
202 -787 -199 0
-202 787 0
-202 199 0
203 -788 -36 0
-203 788 0
-203 36 0
204 -203 -720 0
-204 203 0
-204 720 0
205 -789 -202 0
-205 789 0
-205 202 0
206 -779 -700 0
-206 779 0
-206 700 0
207 -206 -11 0
-207 206 0
-207 11 0
208 -790 -205 0
-208 790 0
-208 205 0
209 -32 -29 0
-209 32 0
-209 29 0
210 -209 -791 0
-210 209 0
-210 791 0
211 -792 -208 0
-211 792 0
-211 208 0
212 -18 -700 0
-212 18 0
-212 700 0
213 -212 -25 0
-213 212 0
-213 25 0
214 -793 -211 0
-214 793 0
-214 211 0
215 -794 -3 0
-215 794 0
-215 3 0
216 -215 -33 0
-216 215 0
-216 33 0
217 -795 -214 0
-217 795 0
-217 214 0
218 -747 -735 0
-218 747 0
-218 735 0
219 -218 -715 0
-219 218 0
-219 715 0
220 -796 -217 0
-220 796 0
-220 217 0
221 -772 -20 0
-221 772 0
-221 20 0
222 -221 -46 0
-222 221 0
-222 46 0
223 -797 -220 0
-223 797 0
-223 220 0
224 -22 -706 0
-224 22 0
-224 706 0
225 -224 -43 0
-225 224 0
-225 43 0
226 -798 -223 0
-226 798 0
-226 223 0
227 -46 -750 0
-227 46 0
-227 750 0
228 -227 -727 0
-228 227 0
-228 727 0
229 -799 -226 0
-229 799 0
-229 226 0
230 -39 -735 0
-230 39 0
-230 735 0
231 -230 -746 0
-231 230 0
-231 746 0
232 -800 -229 0
-232 800 0
-232 229 0
233 -14 -764 0
-233 14 0
-233 764 0
234 -233 -739 0
-234 233 0
-234 739 0
235 -801 -232 0
-235 801 0
-235 232 0
236 -705 -4 0
-236 705 0
-236 4 0
237 -236 -732 0
-237 236 0
-237 732 0
238 -802 -235 0
-238 802 0
-238 235 0
239 -43 -791 0
-239 43 0
-239 791 0
240 -239 -720 0
-240 239 0
-240 720 0
241 -803 -238 0
-241 803 0
-241 238 0
242 -39 -8 0
-242 39 0
-242 8 0
243 -242 -42 0
-243 242 0
-243 42 0
244 -804 -241 0
-244 804 0
-244 241 0
245 -34 -26 0
-245 34 0
-245 26 0
246 -245 -6 0
-246 245 0
-246 6 0
247 -805 -244 0
-247 805 0
-247 244 0
248 -221 -37 0
-248 221 0
-248 37 0
249 -806 -247 0
-249 806 0
-249 247 0
250 -22 -19 0
-250 22 0
-250 19 0
251 -250 -5 0
-251 250 0
-251 5 0
252 -807 -249 0
-252 807 0
-252 249 0
253 -44 -35 0
-253 44 0
-253 35 0
254 -253 -697 0
-254 253 0
-254 697 0
255 -808 -252 0
-255 808 0
-255 252 0
256 -48 -11 0
-256 48 0
-256 11 0
257 -256 -727 0
-257 256 0
-257 727 0
258 -809 -255 0
-258 809 0
-258 255 0
259 -49 -735 0
-259 49 0
-259 735 0
260 -259 -21 0
-260 259 0
-260 21 0
261 -810 -258 0
-261 810 0
-261 258 0
262 -704 -10 0
-262 704 0
-262 10 0
263 -262 -756 0
-263 262 0
-263 756 0
264 -811 -261 0
-264 811 0
-264 261 0
265 -712 -16 0
-265 712 0
-265 16 0
266 -265 -9 0
-266 265 0
-266 9 0
267 -812 -264 0
-267 812 0
-267 264 0
268 -31 -732 0
-268 31 0
-268 732 0
269 -268 -45 0
-269 268 0
-269 45 0
270 -813 -267 0
-270 813 0
-270 267 0
271 -47 -702 0
-271 47 0
-271 702 0
272 -271 -46 0
-272 271 0
-272 46 0
273 -814 -270 0
-273 814 0
-273 270 0
274 -769 -700 0
-274 769 0
-274 700 0
275 -274 -39 0
-275 274 0
-275 39 0
276 -815 -273 0
-276 815 0
-276 273 0
277 -727 -21 0
-277 727 0
-277 21 0
278 -277 -25 0
-278 277 0
-278 25 0
279 -816 -276 0
-279 816 0
-279 276 0
280 -718 -13 0
-280 718 0
-280 13 0
281 -280 -743 0
-281 280 0
-281 743 0
282 -817 -279 0
-282 817 0
-282 279 0
283 -48 -705 0
-283 48 0
-283 705 0
284 -283 -30 0
-284 283 0
-284 30 0
285 -818 -282 0
-285 818 0
-285 282 0
286 -50 -48 0
-286 50 0
-286 48 0
287 -286 -18 0
-287 286 0
-287 18 0
288 -819 -285 0
-288 819 0
-288 285 0
289 -776 -722 0
-289 776 0
-289 722 0
290 -289 -42 0
-290 289 0
-290 42 0
291 -820 -288 0
-291 820 0
-291 288 0
292 -705 -7 0
-292 705 0
-292 7 0
293 -292 -5 0
-293 292 0
-293 5 0
294 -821 -291 0
-294 821 0
-294 291 0
295 -769 -19 0
-295 769 0
-295 19 0
296 -295 -770 0
-296 295 0
-296 770 0
297 -822 -294 0
-297 822 0
-297 294 0
298 -731 -732 0
-298 731 0
-298 732 0
299 -298 -43 0
-299 298 0
-299 43 0
300 -823 -297 0
-300 823 0
-300 297 0
301 -13 -11 0
-301 13 0
-301 11 0
302 -301 -784 0
-302 301 0
-302 784 0
303 -824 -300 0
-303 824 0
-303 300 0
304 -722 -779 0
-304 722 0
-304 779 0
305 -304 -44 0
-305 304 0
-305 44 0
306 -825 -303 0
-306 825 0
-306 303 0
307 -727 -6 0
-307 727 0
-307 6 0
308 -307 -15 0
-308 307 0
-308 15 0
309 -826 -306 0
-309 826 0
-309 306 0
310 -713 -695 0
-310 713 0
-310 695 0
311 -310 -12 0
-311 310 0
-311 12 0
312 -827 -309 0
-312 827 0
-312 309 0
313 -769 -15 0
-313 769 0
-313 15 0
314 -313 -723 0
-314 313 0
-314 723 0
315 -828 -312 0
-315 828 0
-315 312 0
316 -47 -781 0
-316 47 0
-316 781 0
317 -316 -33 0
-317 316 0
-317 33 0
318 -829 -315 0
-318 829 0
-318 315 0
319 -722 -8 0
-319 722 0
-319 8 0
320 -319 -18 0
-320 319 0
-320 18 0
321 -830 -318 0
-321 830 0
-321 318 0
322 -50 -769 0
-322 50 0
-322 769 0
323 -322 -42 0
-323 322 0
-323 42 0
324 -831 -321 0
-324 831 0
-324 321 0
325 -776 -23 0
-325 776 0
-325 23 0
326 -325 -702 0
-326 325 0
-326 702 0
327 -832 -324 0
-327 832 0
-327 324 0
328 -35 -17 0
-328 35 0
-328 17 0
329 -328 -25 0
-329 328 0
-329 25 0
330 -833 -327 0
-330 833 0
-330 327 0
331 -49 -750 0
-331 49 0
-331 750 0
332 -331 -36 0
-332 331 0
-332 36 0
333 -834 -330 0
-333 834 0
-333 330 0
334 -747 -1 0
-334 747 0
-334 1 0
335 -334 -720 0
-335 334 0
-335 720 0
336 -835 -333 0
-336 835 0
-336 333 0
337 -50 -16 0
-337 50 0
-337 16 0
338 -337 -5 0
-338 337 0
-338 5 0
339 -836 -336 0
-339 836 0
-339 336 0
340 -18 -706 0
-340 18 0
-340 706 0
341 -340 -720 0
-341 340 0
-341 720 0
342 -837 -339 0
-342 837 0
-342 339 0
343 -43 -695 0
-343 43 0
-343 695 0
344 -343 -25 0
-344 343 0
-344 25 0
345 -838 -342 0
-345 838 0
-345 342 0
346 -37 -12 0
-346 37 0
-346 12 0
347 -346 -35 0
-347 346 0
-347 35 0
348 -839 -345 0
-348 839 0
-348 345 0
349 -68 -25 0
-349 68 0
-349 25 0
350 -840 -348 0
-350 840 0
-350 348 0
351 -718 -11 0
-351 718 0
-351 11 0
352 -351 -38 0
-352 351 0
-352 38 0
353 -841 -350 0
-353 841 0
-353 350 0
354 -705 -5 0
-354 705 0
-354 5 0
355 -354 -723 0
-355 354 0
-355 723 0
356 -842 -353 0
-356 842 0
-356 353 0
357 -41 -705 0
-357 41 0
-357 705 0
358 -357 -18 0
-358 357 0
-358 18 0
359 -843 -356 0
-359 843 0
-359 356 0
360 -11 -735 0
-360 11 0
-360 735 0
361 -360 -21 0
-361 360 0
-361 21 0
362 -844 -359 0
-362 844 0
-362 359 0
363 -5 -4 0
-363 5 0
-363 4 0
364 -363 -774 0
-364 363 0
-364 774 0
365 -845 -362 0
-365 845 0
-365 362 0
366 -756 -3 0
-366 756 0
-366 3 0
367 -366 -720 0
-367 366 0
-367 720 0
368 -846 -365 0
-368 846 0
-368 365 0
369 -794 -13 0
-369 794 0
-369 13 0
370 -369 -29 0
-370 369 0
-370 29 0
371 -847 -368 0
-371 847 0
-371 368 0
372 -41 -708 0
-372 41 0
-372 708 0
373 -372 -715 0
-373 372 0
-373 715 0
374 -848 -371 0
-374 848 0
-374 371 0
375 -770 -719 0
-375 770 0
-375 719 0
376 -375 -33 0
-376 375 0
-376 33 0
377 -849 -374 0
-377 849 0
-377 374 0
378 -71 -30 0
-378 71 0
-378 30 0
379 -850 -377 0
-379 850 0
-379 377 0
380 -26 -695 0
-380 26 0
-380 695 0
381 -380 -754 0
-381 380 0
-381 754 0
382 -851 -379 0
-382 851 0
-382 379 0
383 -50 -781 0
-383 50 0
-383 781 0
384 -383 -33 0
-384 383 0
-384 33 0
385 -852 -382 0
-385 852 0
-385 382 0
386 -44 -743 0
-386 44 0
-386 743 0
387 -386 -774 0
-387 386 0
-387 774 0
388 -853 -385 0
-388 853 0
-388 385 0
389 -49 -715 0
-389 49 0
-389 715 0
390 -389 -6 0
-390 389 0
-390 6 0
391 -854 -388 0
-391 854 0
-391 388 0
392 -21 -16 0
-392 21 0
-392 16 0
393 -392 -30 0
-393 392 0
-393 30 0
394 -855 -391 0
-394 855 0
-394 391 0
395 -23 -709 0
-395 23 0
-395 709 0
396 -395 -756 0
-396 395 0
-396 756 0
397 -856 -394 0
-397 856 0
-397 394 0
398 -737 -37 0
-398 737 0
-398 37 0
399 -398 -15 0
-399 398 0
-399 15 0
400 -857 -397 0
-400 857 0
-400 397 0
401 -48 -750 0
-401 48 0
-401 750 0
402 -401 -784 0
-402 401 0
-402 784 0
403 -858 -400 0
-403 858 0
-403 400 0
404 -722 -16 0
-404 722 0
-404 16 0
405 -404 -47 0
-405 404 0
-405 47 0
406 -859 -403 0
-406 859 0
-406 403 0
407 -24 -16 0
-407 24 0
-407 16 0
408 -407 -784 0
-408 407 0
-408 784 0
409 -860 -406 0
-409 860 0
-409 406 0
410 -39 -2 0
-410 39 0
-410 2 0
411 -410 -739 0
-411 410 0
-411 739 0
412 -861 -409 0
-412 861 0
-412 409 0
413 -23 -14 0
-413 23 0
-413 14 0
414 -413 -715 0
-414 413 0
-414 715 0
415 -862 -412 0
-415 862 0
-415 412 0
416 -26 -13 0
-416 26 0
-416 13 0
417 -416 -756 0
-417 416 0
-417 756 0
418 -863 -415 0
-418 863 0
-418 415 0
419 -772 -769 0
-419 772 0
-419 769 0
420 -419 -36 0
-420 419 0
-420 36 0
421 -864 -418 0
-421 864 0
-421 418 0
422 -759 -713 0
-422 759 0
-422 713 0
423 -422 -21 0
-423 422 0
-423 21 0
424 -865 -421 0
-424 865 0
-424 421 0
425 -781 -5 0
-425 781 0
-425 5 0
426 -425 -43 0
-426 425 0
-426 43 0
427 -866 -424 0
-427 866 0
-427 424 0
428 -10 -747 0
-428 10 0
-428 747 0
429 -428 -710 0
-429 428 0
-429 710 0
430 -867 -427 0
-430 867 0
-430 427 0
431 -746 -702 0
-431 746 0
-431 702 0
432 -431 -27 0
-432 431 0
-432 27 0
433 -868 -430 0
-433 868 0
-433 430 0
434 -31 -713 0
-434 31 0
-434 713 0
435 -434 -2 0
-435 434 0
-435 2 0
436 -869 -433 0
-436 869 0
-436 433 0
437 -31 -14 0
-437 31 0
-437 14 0
438 -437 -35 0
-438 437 0
-438 35 0
439 -870 -436 0
-439 870 0
-439 436 0
440 -871 -695 0
-440 871 0
-440 695 0
441 -440 -706 0
-441 440 0
-441 706 0
442 -872 -439 0
-442 872 0
-442 439 0
443 -49 -747 0
-443 49 0
-443 747 0
444 -443 -873 0
-444 443 0
-444 873 0
445 -874 -442 0
-445 874 0
-445 442 0
446 -875 -764 0
-446 875 0
-446 764 0
447 -446 -25 0
-447 446 0
-447 25 0
448 -876 -445 0
-448 876 0
-448 445 0
449 -750 -704 0
-449 750 0
-449 704 0
450 -449 -784 0
-450 449 0
-450 784 0
451 -877 -448 0
-451 877 0
-451 448 0
452 -750 -7 0
-452 750 0
-452 7 0
453 -452 -33 0
-453 452 0
-453 33 0
454 -878 -451 0
-454 878 0
-454 451 0
455 -702 -4 0
-455 702 0
-455 4 0
456 -455 -12 0
-456 455 0
-456 12 0
457 -879 -454 0
-457 879 0
-457 454 0
458 -791 -14 0
-458 791 0
-458 14 0
459 -458 -43 0
-459 458 0
-459 43 0
460 -880 -457 0
-460 880 0
-460 457 0
461 -774 -735 0
-461 774 0
-461 735 0
462 -461 -43 0
-462 461 0
-462 43 0
463 -881 -460 0
-463 881 0
-463 460 0
464 -769 -712 0
-464 769 0
-464 712 0
465 -464 -748 0
-465 464 0
-465 748 0
466 -882 -463 0
-466 882 0
-466 463 0
467 -759 -10 0
-467 759 0
-467 10 0
468 -467 -748 0
-468 467 0
-468 748 0
469 -883 -466 0
-469 883 0
-469 466 0
470 -40 -17 0
-470 40 0
-470 17 0
471 -470 -696 0
-471 470 0
-471 696 0
472 -884 -469 0
-472 884 0
-472 469 0
473 -885 -5 0
-473 885 0
-473 5 0
474 -473 -42 0
-474 473 0
-474 42 0
475 -886 -472 0
-475 886 0
-475 472 0
476 -44 -22 0
-476 44 0
-476 22 0
477 -476 -875 0
-477 476 0
-477 875 0
478 -887 -475 0
-478 887 0
-478 475 0
479 -44 -754 0
-479 44 0
-479 754 0
480 -479 -35 0
-480 479 0
-480 35 0
481 -888 -478 0
-481 888 0
-481 478 0
482 -29 -718 0
-482 29 0
-482 718 0
483 -482 -45 0
-483 482 0
-483 45 0
484 -889 -481 0
-484 889 0
-484 481 0
485 -16 -695 0
-485 16 0
-485 695 0
486 -485 -875 0
-486 485 0
-486 875 0
487 -890 -484 0
-487 890 0
-487 484 0
488 -40 -39 0
-488 40 0
-488 39 0
489 -488 -15 0
-489 488 0
-489 15 0
490 -891 -487 0
-490 891 0
-490 487 0
491 -37 -26 0
-491 37 0
-491 26 0
492 -491 -45 0
-492 491 0
-492 45 0
493 -892 -490 0
-493 892 0
-493 490 0
494 -705 -747 0
-494 705 0
-494 747 0
495 -494 -875 0
-495 494 0
-495 875 0
496 -893 -493 0
-496 893 0
-496 493 0
497 -28 -15 0
-497 28 0
-497 15 0
498 -497 -30 0
-498 497 0
-498 30 0
499 -894 -496 0
-499 894 0
-499 496 0
500 -41 -12 0
-500 41 0
-500 12 0
501 -500 -29 0
-501 500 0
-501 29 0
502 -895 -499 0
-502 895 0
-502 499 0
503 -20 -713 0
-503 20 0
-503 713 0
504 -503 -696 0
-504 503 0
-504 696 0
505 -896 -502 0
-505 896 0
-505 502 0
506 -770 -13 0
-506 770 0
-506 13 0
507 -506 -788 0
-507 506 0
-507 788 0
508 -897 -505 0
-508 897 0
-508 505 0
509 -14 -9 0
-509 14 0
-509 9 0
510 -509 -788 0
-510 509 0
-510 788 0
511 -898 -508 0
-511 898 0
-511 508 0
512 -39 -16 0
-512 39 0
-512 16 0
513 -512 -33 0
-513 512 0
-513 33 0
514 -899 -511 0
-514 899 0
-514 511 0
515 -873 -1 0
-515 873 0
-515 1 0
516 -515 -27 0
-516 515 0
-516 27 0
517 -900 -514 0
-517 900 0
-517 514 0
518 -779 -10 0
-518 779 0
-518 10 0
519 -518 -33 0
-519 518 0
-519 33 0
520 -901 -517 0
-520 901 0
-520 517 0
521 -776 -764 0
-521 776 0
-521 764 0
522 -521 -5 0
-522 521 0
-522 5 0
523 -902 -520 0
-523 902 0
-523 520 0
524 -44 -14 0
-524 44 0
-524 14 0
525 -524 -36 0
-525 524 0
-525 36 0
526 -903 -523 0
-526 903 0
-526 523 0
527 -50 -732 0
-527 50 0
-527 732 0
528 -527 -45 0
-528 527 0
-528 45 0
529 -904 -526 0
-529 904 0
-529 526 0
530 -713 -4 0
-530 713 0
-530 4 0
531 -530 -44 0
-531 530 0
-531 44 0
532 -905 -529 0
-532 905 0
-532 529 0
533 -34 -9 0
-533 34 0
-533 9 0
534 -533 -875 0
-534 533 0
-534 875 0
535 -906 -532 0
-535 906 0
-535 532 0
536 -722 -732 0
-536 722 0
-536 732 0
537 -536 -45 0
-537 536 0
-537 45 0
538 -907 -535 0
-538 907 0
-538 535 0
539 -709 -11 0
-539 709 0
-539 11 0
540 -539 -774 0
-540 539 0
-540 774 0
541 -908 -538 0
-541 908 0
-541 538 0
542 -731 -722 0
-542 731 0
-542 722 0
543 -542 -706 0
-543 542 0
-543 706 0
544 -909 -541 0
-544 909 0
-544 541 0
545 -41 -715 0
-545 41 0
-545 715 0
546 -545 -42 0
-546 545 0
-546 42 0
547 -910 -544 0
-547 910 0
-547 544 0
548 -776 -1 0
-548 776 0
-548 1 0
549 -548 -48 0
-549 548 0
-549 48 0
550 -911 -547 0
-550 911 0
-550 547 0
551 -39 -709 0
-551 39 0
-551 709 0
552 -551 -704 0
-552 551 0
-552 704 0
553 -912 -550 0
-553 912 0
-553 550 0
554 -769 -7 0
-554 769 0
-554 7 0
555 -554 -737 0
-555 554 0
-555 737 0
556 -913 -553 0
-556 913 0
-556 553 0
557 -776 -718 0
-557 776 0
-557 718 0
558 -557 -914 0
-558 557 0
-558 914 0
559 -915 -556 0
-559 915 0
-559 556 0
560 -885 -781 0
-560 885 0
-560 781 0
561 -560 -27 0
-561 560 0
-561 27 0
562 -916 -559 0
-562 916 0
-562 559 0
563 -250 -33 0
-563 250 0
-563 33 0
564 -917 -562 0
-564 917 0
-564 562 0
565 -167 -748 0
-565 167 0
-565 748 0
566 -918 -564 0
-566 918 0
-566 564 0
567 -322 -712 0
-567 322 0
-567 712 0
568 -919 -566 0
-568 919 0
-568 566 0
569 -788 -44 0
-569 788 0
-569 44 0
570 -569 -723 0
-570 569 0
-570 723 0
571 -920 -568 0
-571 920 0
-571 568 0
572 -48 -39 0
-572 48 0
-572 39 0
573 -572 -18 0
-573 572 0
-573 18 0
574 -921 -571 0
-574 921 0
-574 571 0
575 -770 -47 0
-575 770 0
-575 47 0
576 -575 -45 0
-576 575 0
-576 45 0
577 -922 -574 0
-577 922 0
-577 574 0
578 -42 -35 0
-578 42 0
-578 35 0
579 -578 -732 0
-579 578 0
-579 732 0
580 -923 -577 0
-580 923 0
-580 577 0
581 -39 -914 0
-581 39 0
-581 914 0
582 -581 -13 0
-582 581 0
-582 13 0
583 -924 -580 0
-583 924 0
-583 580 0
584 -885 -46 0
-584 885 0
-584 46 0
585 -584 -735 0
-585 584 0
-585 735 0
586 -925 -583 0
-586 925 0
-586 583 0
587 -702 -3 0
-587 702 0
-587 3 0
588 -587 -875 0
-588 587 0
-588 875 0
589 -926 -586 0
-589 926 0
-589 586 0
590 -871 -9 0
-590 871 0
-590 9 0
591 -590 -6 0
-591 590 0
-591 6 0
592 -927 -589 0
-592 927 0
-592 589 0
593 -759 -35 0
-593 759 0
-593 35 0
594 -593 -36 0
-594 593 0
-594 36 0
595 -928 -592 0
-595 928 0
-595 592 0
596 -24 -8 0
-596 24 0
-596 8 0
597 -596 -739 0
-597 596 0
-597 739 0
598 -929 -595 0
-598 929 0
-598 595 0
599 -49 -11 0
-599 49 0
-599 11 0
600 -599 -45 0
-600 599 0
-600 45 0
601 -930 -598 0
-601 930 0
-601 598 0
602 -737 -794 0
-602 737 0
-602 794 0
603 -602 -6 0
-603 602 0
-603 6 0
604 -931 -601 0
-604 931 0
-604 601 0
605 -754 -764 0
-605 754 0
-605 764 0
606 -605 -27 0
-606 605 0
-606 27 0
607 -932 -604 0
-607 932 0
-607 604 0
608 -779 -7 0
-608 779 0
-608 7 0
609 -608 -712 0
-609 608 0
-609 712 0
610 -933 -607 0
-610 933 0
-610 607 0
611 -46 -754 0
-611 46 0
-611 754 0
612 -611 -38 0
-612 611 0
-612 38 0
613 -934 -610 0
-613 934 0
-613 610 0
614 -794 -24 0
-614 794 0
-614 24 0
615 -614 -4 0
-615 614 0
-615 4 0
616 -935 -613 0
-616 935 0
-616 613 0
617 -46 -769 0
-617 46 0
-617 769 0
618 -617 -708 0
-618 617 0
-618 708 0
619 -936 -616 0
-619 936 0
-619 616 0
620 -39 -719 0
-620 39 0
-620 719 0
621 -620 -14 0
-621 620 0
-621 14 0
622 -937 -619 0
-622 937 0
-622 619 0
623 -289 -36 0
-623 289 0
-623 36 0
624 -938 -622 0
-624 938 0
-624 622 0
625 -30 -747 0
-625 30 0
-625 747 0
626 -625 -723 0
-626 625 0
-626 723 0
627 -939 -624 0
-627 939 0
-627 624 0
628 -769 -747 0
-628 769 0
-628 747 0
629 -628 -2 0
-629 628 0
-629 2 0
630 -940 -627 0
-630 940 0
-630 627 0
631 -49 -34 0
-631 49 0
-631 34 0
632 -631 -45 0
-632 631 0
-632 45 0
633 -941 -630 0
-633 941 0
-633 630 0
634 -770 -4 0
-634 770 0
-634 4 0
635 -634 -9 0
-635 634 0
-635 9 0
636 -942 -633 0
-636 942 0
-636 633 0
637 -17 -696 0
-637 17 0
-637 696 0
638 -637 -33 0
-638 637 0
-638 33 0
639 -943 -636 0
-639 943 0
-639 636 0
640 -221 -45 0
-640 221 0
-640 45 0
641 -944 -639 0
-641 944 0
-641 639 0
642 -709 -8 0
-642 709 0
-642 8 0
643 -642 -12 0
-643 642 0
-643 12 0
644 -945 -641 0
-644 945 0
-644 641 0
645 -718 -7 0
-645 718 0
-645 7 0
646 -645 -4 0
-646 645 0
-646 4 0
647 -946 -644 0
-647 946 0
-647 644 0
648 -34 -705 0
-648 34 0
-648 705 0
649 -648 -764 0
-649 648 0
-649 764 0
650 -947 -647 0
-650 947 0
-650 647 0
651 -31 -16 0
-651 31 0
-651 16 0
652 -651 -15 0
-652 651 0
-652 15 0
653 -948 -650 0
-653 948 0
-653 650 0
654 -68 -9 0
-654 68 0
-654 9 0
655 -949 -653 0
-655 949 0
-655 653 0
656 -737 -2 0
-656 737 0
-656 2 0
657 -656 -21 0
-657 656 0
-657 21 0
658 -950 -655 0
-658 950 0
-658 655 0
659 -769 -704 0
-659 769 0
-659 704 0
660 -659 -748 0
-660 659 0
-660 748 0
661 -951 -658 0
-661 951 0
-661 658 0
662 -44 -23 0
-662 44 0
-662 23 0
663 -662 -33 0
-663 662 0
-663 33 0
664 -952 -661 0
-664 952 0
-664 661 0
665 -38 -30 0
-665 38 0
-665 30 0
666 -665 -27 0
-666 665 0
-666 27 0
667 -953 -664 0
-667 953 0
-667 664 0
668 -743 -715 0
-668 743 0
-668 715 0
669 -668 -746 0
-669 668 0
-669 746 0
670 -954 -667 0
-670 954 0
-670 667 0
671 -49 -727 0
-671 49 0
-671 727 0
672 -671 -697 0
-672 671 0
-672 697 0
673 -955 -670 0
-673 955 0
-673 670 0
674 -914 -29 0
-674 914 0
-674 29 0
675 -674 -748 0
-675 674 0
-675 748 0
676 -956 -673 0
-676 956 0
-676 673 0
677 -47 -704 0
-677 47 0
-677 704 0
678 -677 -697 0
-678 677 0
-678 697 0
679 -957 -676 0
-679 957 0
-679 676 0
680 -772 -871 0
-680 772 0
-680 871 0
681 -680 -21 0
-681 680 0
-681 21 0
682 -958 -679 0
-682 958 0
-682 679 0
683 -12 -5 0
-683 12 0
-683 5 0
684 -683 -784 0
-684 683 0
-684 784 0
685 -959 -682 0
-685 959 0
-685 682 0
686 -29 -719 0
-686 29 0
-686 719 0
687 -686 -25 0
-687 686 0
-687 25 0
688 -960 -685 0
-688 960 0
-688 685 0
689 -776 -26 0
-689 776 0
-689 26 0
690 -689 -29 0
-690 689 0
-690 29 0
691 -961 -688 0
-691 961 0
-691 688 0
692 -32 -871 0
-692 32 0
-692 871 0
693 -692 -21 0
-693 692 0
-693 21 0
694 -962 -691 0
-694 962 0
-694 691 0
-695 -1 0
695 1 0
-696 -5 0
696 5 0
-697 -6 0
697 6 0
-698 -54 0
698 54 0
-699 -52 0
699 52 0
-700 -7 0
700 7 0
-701 -57 0
701 57 0
-702 -11 0
702 11 0
-703 -60 0
703 60 0
-704 -14 0
704 14 0
-705 -13 0
705 13 0
-706 -15 0
706 15 0
-707 -63 0
707 63 0
-708 -17 0
708 17 0
-709 -16 0
709 16 0
-710 -18 0
710 18 0
-711 -66 0
711 66 0
-712 -20 0
712 20 0
-713 -19 0
713 19 0
-714 -69 0
714 69 0
-715 -22 0
715 22 0
-716 -72 0
716 72 0
-717 -75 0
717 75 0
-718 -24 0
718 24 0
-719 -12 0
719 12 0
-720 -25 0
720 25 0
-721 -78 0
721 78 0
-722 -26 0
722 26 0
-723 -27 0
723 27 0
-724 -81 0
724 81 0
-725 -84 0
725 84 0
-726 -87 0
726 87 0
-727 -33 0
727 33 0
-728 -90 0
728 90 0
-729 -93 0
729 93 0
-730 -96 0
730 96 0
-731 -37 0
731 37 0
-732 -9 0
732 9 0
-733 -99 0
733 99 0
-734 -102 0
734 102 0
-735 -2 0
735 2 0
-736 -105 0
736 105 0
-737 -39 0
737 39 0
-738 -108 0
738 108 0
-739 -38 0
739 38 0
-740 -111 0
740 111 0
-741 -114 0
741 114 0
-742 -117 0
742 117 0
-743 -34 0
743 34 0
-744 -120 0
744 120 0
-745 -123 0
745 123 0
-746 -42 0
746 42 0
-747 -4 0
747 4 0
-748 -43 0
748 43 0
-749 -126 0
749 126 0
-750 -44 0
750 44 0
-751 -129 0
751 129 0
-752 -132 0
752 132 0
-753 -135 0
753 135 0
-754 -8 0
754 8 0
-755 -138 0
755 138 0
-756 -29 0
756 29 0
-757 -141 0
757 141 0
-758 -144 0
758 144 0
-759 -46 0
759 46 0
-760 -147 0
760 147 0
-761 -150 0
761 150 0
-762 -153 0
762 153 0
-763 -156 0
763 156 0
-764 -3 0
764 3 0
-765 -159 0
765 159 0
-766 -162 0
766 162 0
-767 -165 0
767 165 0
-768 -168 0
768 168 0
-769 -40 0
769 40 0
-770 -49 0
770 49 0
-771 -171 0
771 171 0
-772 -48 0
772 48 0
-773 -174 0
773 174 0
-774 -35 0
774 35 0
-775 -177 0
775 177 0
-776 -47 0
776 47 0
-777 -180 0
777 180 0
-778 -183 0
778 183 0
-779 -23 0
779 23 0
-780 -186 0
780 186 0
-781 -10 0
781 10 0
-782 -189 0
782 189 0
-783 -192 0
783 192 0
-784 -21 0
784 21 0
-785 -195 0
785 195 0
-786 -198 0
786 198 0
-787 -201 0
787 201 0
-788 -45 0
788 45 0
-789 -204 0
789 204 0
-790 -207 0
790 207 0
-791 -30 0
791 30 0
-792 -210 0
792 210 0
-793 -213 0
793 213 0
-794 -31 0
794 31 0
-795 -216 0
795 216 0
-796 -219 0
796 219 0
-797 -222 0
797 222 0
-798 -225 0
798 225 0
-799 -228 0
799 228 0
-800 -231 0
800 231 0
-801 -234 0
801 234 0
-802 -237 0
802 237 0
-803 -240 0
803 240 0
-804 -243 0
804 243 0
-805 -246 0
805 246 0
-806 -248 0
806 248 0
-807 -251 0
807 251 0
-808 -254 0
808 254 0
-809 -257 0
809 257 0
-810 -260 0
810 260 0
-811 -263 0
811 263 0
-812 -266 0
812 266 0
-813 -269 0
813 269 0
-814 -272 0
814 272 0
-815 -275 0
815 275 0
-816 -278 0
816 278 0
-817 -281 0
817 281 0
-818 -284 0
818 284 0
-819 -287 0
819 287 0
-820 -290 0
820 290 0
-821 -293 0
821 293 0
-822 -296 0
822 296 0
-823 -299 0
823 299 0
-824 -302 0
824 302 0
-825 -305 0
825 305 0
-826 -308 0
826 308 0
-827 -311 0
827 311 0
-828 -314 0
828 314 0
-829 -317 0
829 317 0
-830 -320 0
830 320 0
-831 -323 0
831 323 0
-832 -326 0
832 326 0
-833 -329 0
833 329 0
-834 -332 0
834 332 0
-835 -335 0
835 335 0
-836 -338 0
836 338 0
-837 -341 0
837 341 0
-838 -344 0
838 344 0
-839 -347 0
839 347 0
-840 -349 0
840 349 0
-841 -352 0
841 352 0
-842 -355 0
842 355 0
-843 -358 0
843 358 0
-844 -361 0
844 361 0
-845 -364 0
845 364 0
-846 -367 0
846 367 0
-847 -370 0
847 370 0
-848 -373 0
848 373 0
-849 -376 0
849 376 0
-850 -378 0
850 378 0
-851 -381 0
851 381 0
-852 -384 0
852 384 0
-853 -387 0
853 387 0
-854 -390 0
854 390 0
-855 -393 0
855 393 0
-856 -396 0
856 396 0
-857 -399 0
857 399 0
-858 -402 0
858 402 0
-859 -405 0
859 405 0
-860 -408 0
860 408 0
-861 -411 0
861 411 0
-862 -414 0
862 414 0
-863 -417 0
863 417 0
-864 -420 0
864 420 0
-865 -423 0
865 423 0
-866 -426 0
866 426 0
-867 -429 0
867 429 0
-868 -432 0
868 432 0
-869 -435 0
869 435 0
-870 -438 0
870 438 0
-871 -28 0
871 28 0
-872 -441 0
872 441 0
-873 -41 0
873 41 0
-874 -444 0
874 444 0
-875 -36 0
875 36 0
-876 -447 0
876 447 0
-877 -450 0
877 450 0
-878 -453 0
878 453 0
-879 -456 0
879 456 0
-880 -459 0
880 459 0
-881 -462 0
881 462 0
-882 -465 0
882 465 0
-883 -468 0
883 468 0
-884 -471 0
884 471 0
-885 -50 0
885 50 0
-886 -474 0
886 474 0
-887 -477 0
887 477 0
-888 -480 0
888 480 0
-889 -483 0
889 483 0
-890 -486 0
890 486 0
-891 -489 0
891 489 0
-892 -492 0
892 492 0
-893 -495 0
893 495 0
-894 -498 0
894 498 0
-895 -501 0
895 501 0
-896 -504 0
896 504 0
-897 -507 0
897 507 0
-898 -510 0
898 510 0
-899 -513 0
899 513 0
-900 -516 0
900 516 0
-901 -519 0
901 519 0
-902 -522 0
902 522 0
-903 -525 0
903 525 0
-904 -528 0
904 528 0
-905 -531 0
905 531 0
-906 -534 0
906 534 0
-907 -537 0
907 537 0
-908 -540 0
908 540 0
-909 -543 0
909 543 0
-910 -546 0
910 546 0
-911 -549 0
911 549 0
-912 -552 0
912 552 0
-913 -555 0
913 555 0
-914 -32 0
914 32 0
-915 -558 0
915 558 0
-916 -561 0
916 561 0
-917 -563 0
917 563 0
-918 -565 0
918 565 0
-919 -567 0
919 567 0
-920 -570 0
920 570 0
-921 -573 0
921 573 0
-922 -576 0
922 576 0
-923 -579 0
923 579 0
-924 -582 0
924 582 0
-925 -585 0
925 585 0
-926 -588 0
926 588 0
-927 -591 0
927 591 0
-928 -594 0
928 594 0
-929 -597 0
929 597 0
-930 -600 0
930 600 0
-931 -603 0
931 603 0
-932 -606 0
932 606 0
-933 -609 0
933 609 0
-934 -612 0
934 612 0
-935 -615 0
935 615 0
-936 -618 0
936 618 0
-937 -621 0
937 621 0
-938 -623 0
938 623 0
-939 -626 0
939 626 0
-940 -629 0
940 629 0
-941 -632 0
941 632 0
-942 -635 0
942 635 0
-943 -638 0
943 638 0
-944 -640 0
944 640 0
-945 -643 0
945 643 0
-946 -646 0
946 646 0
-947 -649 0
947 649 0
-948 -652 0
948 652 0
-949 -654 0
949 654 0
-950 -657 0
950 657 0
-951 -660 0
951 660 0
-952 -663 0
952 663 0
-953 -666 0
953 666 0
-954 -669 0
954 669 0
-955 -672 0
955 672 0
-956 -675 0
956 675 0
-957 -678 0
957 678 0
-958 -681 0
958 681 0
-959 -684 0
959 684 0
-960 -687 0
960 687 0
-961 -690 0
961 690 0
-962 -693 0
962 693 0
694 0
